c Instancia generada aleatoriamente
p edge 30 37
e 1 4
e 1 6
e 1 9
e 2 20
e 3 15
e 3 21
e 5 8
e 5 27
e 6 15
e 6 16
e 6 18
e 6 22
e 7 24
e 7 27
e 8 23
e 8 28
e 9 16
e 9 29
e 11 14
e 11 16
e 11 17
e 11 23
e 12 20
e 14 15
e 14 17
e 14 25
e 15 17
e 16 17
e 16 21
e 16 23
e 17 18
e 18 24
e 20 29
e 21 30
e 23 27
e 25 30
e 28 29
